# 3d Lennard-Jones melt

variable	x index 1
variable	y index 1
variable	z index 1

# The base replication will give us 131072 atoms
variable	xx equal 32*$x
variable	yy equal 32*$y
variable	zz equal 32*$z

units		lj
atom_style	atomic

# With FCC there are 4 atoms per-cell
lattice		fcc 0.8442
region		box block 0 ${xx} 0 ${yy} 0 ${zz}
create_box	1 box
create_atoms	1 box
mass		1 1.0

# This command is replaced at runtime by the job script
# to replicate the data such that we have 131072 atoms per rank
replicate GX GY GZ

velocity	all create 1.44 87287 loop geom

pair_style	lj/cut 2.5
pair_coeff	1 1 1.0 1.0 2.5

neighbor	0.3 bin
neigh_modify	delay 0 every 20 check no

fix		1 all nve

